c colouring generated by benchmark framework
p edge 1000 245000
v 1 15
v 2 25
v 3 28
v 4 72
v 5 59
v 6 90
v 7 11
v 8 48
v 9 112
v 10 90
v 11 60
v 12 122
v 13 81
v 14 16
v 15 114
v 16 46
v 17 29
v 18 109
v 19 66
v 20 27
v 21 61
v 22 32
v 23 111
v 24 71
v 25 54
v 26 41
v 27 29
v 28 36
v 29 82
v 30 101
v 31 14
v 32 20
v 33 83
v 34 92
v 35 133
v 36 36
v 37 27
v 38 49
v 39 53
v 40 107
v 41 58
v 42 13
v 43 47
v 44 81
v 45 55
v 46 21
v 47 13
v 48 59
v 49 85
v 50 27
v 51 83
v 52 53
v 53 44
v 54 56
v 55 3
v 56 37
v 57 80
v 58 54
v 59 28
v 60 12
v 61 8
v 62 50
v 63 50
v 64 58
v 65 95
v 66 29
v 67 54
v 68 127
v 69 102
v 70 31
v 71 17
v 72 142
v 73 36
v 74 1
v 75 54
v 76 17
v 77 121
v 78 89
v 79 77
v 80 49
v 81 48
v 82 33
v 83 33
v 84 98
v 85 113
v 86 27
v 87 12
v 88 71
v 89 36
v 90 25
v 91 9
v 92 1
v 93 123
v 94 3
v 95 11
v 96 37
v 97 26
v 98 122
v 99 59
v 100 74
v 101 11
v 102 70
v 103 19
v 104 41
v 105 107
v 106 83
v 107 108
v 108 18
v 109 46
v 110 0
v 111 65
v 112 130
v 113 61
v 114 57
v 115 57
v 116 66
v 117 43
v 118 82
v 119 88
v 120 43
v 121 10
v 122 35
v 123 15
v 124 103
v 125 88
v 126 42
v 127 31
v 128 4
v 129 92
v 130 96
v 131 5
v 132 110
v 133 101
v 134 108
v 135 32
v 136 29
v 137 44
v 138 132
v 139 79
v 140 3
v 141 7
v 142 54
v 143 142
v 144 119
v 145 104
v 146 26
v 147 52
v 148 48
v 149 99
v 150 116
v 151 99
v 152 1
v 153 72
v 154 80
v 155 102
v 156 110
v 157 89
v 158 52
v 159 63
v 160 99
v 161 55
v 162 17
v 163 5
v 164 43
v 165 8
v 166 53
v 167 25
v 168 111
v 169 56
v 170 52
v 171 77
v 172 83
v 173 19
v 174 47
v 175 7
v 176 28
v 177 102
v 178 24
v 179 76
v 180 123
v 181 78
v 182 30
v 183 133
v 184 71
v 185 48
v 186 2
v 187 115
v 188 1
v 189 55
v 190 20
v 191 43
v 192 18
v 193 93
v 194 20
v 195 20
v 196 62
v 197 33
v 198 118
v 199 72
v 200 107
v 201 25
v 202 132
v 203 50
v 204 14
v 205 74
v 206 44
v 207 35
v 208 12
v 209 37
v 210 72
v 211 59
v 212 45
v 213 23
v 214 60
v 215 106
v 216 86
v 217 4
v 218 129
v 219 121
v 220 63
v 221 85
v 222 0
v 223 13
v 224 142
v 225 15
v 226 85
v 227 136
v 228 29
v 229 3
v 230 10
v 231 126
v 232 13
v 233 73
v 234 79
v 235 111
v 236 95
v 237 28
v 238 28
v 239 107
v 240 92
v 241 96
v 242 51
v 243 69
v 244 65
v 245 6
v 246 27
v 247 81
v 248 39
v 249 143
v 250 1
v 251 6
v 252 118
v 253 24
v 254 15
v 255 109
v 256 27
v 257 95
v 258 66
v 259 61
v 260 40
v 261 30
v 262 141
v 263 9
v 264 8
v 265 19
v 266 8
v 267 83
v 268 70
v 269 2
v 270 73
v 271 44
v 272 88
v 273 42
v 274 119
v 275 113
v 276 39
v 277 38
v 278 35
v 279 31
v 280 49
v 281 31
v 282 77
v 283 64
v 284 56
v 285 99
v 286 98
v 287 130
v 288 96
v 289 70
v 290 45
v 291 31
v 292 26
v 293 129
v 294 34
v 295 109
v 296 88
v 297 100
v 298 62
v 299 91
v 300 35
v 301 102
v 302 131
v 303 131
v 304 8
v 305 51
v 306 2
v 307 105
v 308 80
v 309 38
v 310 110
v 311 96
v 312 133
v 313 91
v 314 111
v 315 37
v 316 45
v 317 55
v 318 19
v 319 13
v 320 48
v 321 88
v 322 35
v 323 73
v 324 27
v 325 33
v 326 17
v 327 87
v 328 37
v 329 80
v 330 2
v 331 102
v 332 76
v 333 14
v 334 94
v 335 112
v 336 49
v 337 23
v 338 52
v 339 5
v 340 17
v 341 89
v 342 50
v 343 95
v 344 21
v 345 123
v 346 114
v 347 66
v 348 49
v 349 80
v 350 67
v 351 26
v 352 96
v 353 33
v 354 58
v 355 18
v 356 69
v 357 12
v 358 7
v 359 17
v 360 40
v 361 11
v 362 7
v 363 70
v 364 62
v 365 57
v 366 43
v 367 51
v 368 14
v 369 50
v 370 117
v 371 76
v 372 48
v 373 34
v 374 127
v 375 77
v 376 22
v 377 108
v 378 43
v 379 65
v 380 71
v 381 53
v 382 89
v 383 112
v 384 57
v 385 36
v 386 21
v 387 16
v 388 50
v 389 6
v 390 14
v 391 66
v 392 124
v 393 15
v 394 140
v 395 40
v 396 97
v 397 105
v 398 11
v 399 64
v 400 127
v 401 8
v 402 62
v 403 114
v 404 14
v 405 4
v 406 87
v 407 2
v 408 68
v 409 95
v 410 41
v 411 35
v 412 54
v 413 94
v 414 67
v 415 87
v 416 47
v 417 44
v 418 87
v 419 61
v 420 7
v 421 38
v 422 11
v 423 11
v 424 73
v 425 28
v 426 65
v 427 21
v 428 9
v 429 62
v 430 52
v 431 41
v 432 13
v 433 38
v 434 71
v 435 38
v 436 74
v 437 17
v 438 92
v 439 42
v 440 74
v 441 44
v 442 34
v 443 66
v 444 84
v 445 62
v 446 44
v 447 73
v 448 36
v 449 46
v 450 67
v 451 87
v 452 13
v 453 10
v 454 28
v 455 86
v 456 65
v 457 45
v 458 56
v 459 79
v 460 57
v 461 133
v 462 108
v 463 5
v 464 84
v 465 28
v 466 78
v 467 81
v 468 97
v 469 105
v 470 51
v 471 140
v 472 58
v 473 56
v 474 121
v 475 124
v 476 52
v 477 19
v 478 75
v 479 101
v 480 47
v 481 45
v 482 109
v 483 71
v 484 1
v 485 70
v 486 9
v 487 25
v 488 9
v 489 122
v 490 79
v 491 126
v 492 67
v 493 16
v 494 68
v 495 108
v 496 91
v 497 60
v 498 5
v 499 126
v 500 42
v 501 101
v 502 100
v 503 101
v 504 104
v 505 44
v 506 60
v 507 18
v 508 49
v 509 139
v 510 131
v 511 9
v 512 0
v 513 90
v 514 0
v 515 18
v 516 111
v 517 117
v 518 69
v 519 11
v 520 67
v 521 141
v 522 22
v 523 73
v 524 124
v 525 5
v 526 26
v 527 12
v 528 88
v 529 122
v 530 18
v 531 110
v 532 76
v 533 105
v 534 85
v 535 27
v 536 12
v 537 47
v 538 46
v 539 33
v 540 91
v 541 19
v 542 69
v 543 69
v 544 7
v 545 61
v 546 83
v 547 4
v 548 72
v 549 33
v 550 15
v 551 45
v 552 118
v 553 0
v 554 52
v 555 46
v 556 16
v 557 117
v 558 78
v 559 26
v 560 26
v 561 32
v 562 98
v 563 16
v 564 91
v 565 75
v 566 120
v 567 138
v 568 128
v 569 143
v 570 64
v 571 34
v 572 60
v 573 3
v 574 3
v 575 107
v 576 134
v 577 5
v 578 117
v 579 28
v 580 94
v 581 18
v 582 33
v 583 23
v 584 6
v 585 10
v 586 84
v 587 23
v 588 35
v 589 32
v 590 133
v 591 16
v 592 97
v 593 131
v 594 57
v 595 6
v 596 39
v 597 47
v 598 13
v 599 115
v 600 86
v 601 94
v 602 132
v 603 30
v 604 90
v 605 103
v 606 16
v 607 100
v 608 99
v 609 93
v 610 103
v 611 23
v 612 36
v 613 31
v 614 55
v 615 72
v 616 97
v 617 100
v 618 40
v 619 10
v 620 75
v 621 69
v 622 64
v 623 19
v 624 88
v 625 137
v 626 63
v 627 64
v 628 140
v 629 25
v 630 9
v 631 51
v 632 4
v 633 58
v 634 50
v 635 112
v 636 99
v 637 61
v 638 77
v 639 35
v 640 59
v 641 7
v 642 10
v 643 3
v 644 27
v 645 0
v 646 25
v 647 98
v 648 104
v 649 31
v 650 86
v 651 41
v 652 95
v 653 35
v 654 76
v 655 30
v 656 86
v 657 120
v 658 75
v 659 42
v 660 120
v 661 40
v 662 77
v 663 93
v 664 32
v 665 41
v 666 22
v 667 80
v 668 32
v 669 46
v 670 79
v 671 76
v 672 100
v 673 65
v 674 78
v 675 53
v 676 33
v 677 115
v 678 60
v 679 10
v 680 94
v 681 46
v 682 63
v 683 53
v 684 62
v 685 68
v 686 51
v 687 90
v 688 4
v 689 116
v 690 111
v 691 90
v 692 67
v 693 61
v 694 100
v 695 82
v 696 42
v 697 4
v 698 75
v 699 86
v 700 73
v 701 30
v 702 38
v 703 15
v 704 139
v 705 34
v 706 24
v 707 20
v 708 100
v 709 15
v 710 68
v 711 86
v 712 65
v 713 91
v 714 128
v 715 29
v 716 20
v 717 68
v 718 30
v 719 69
v 720 20
v 721 125
v 722 6
v 723 32
v 724 2
v 725 82
v 726 68
v 727 91
v 728 9
v 729 73
v 730 10
v 731 125
v 732 50
v 733 48
v 734 17
v 735 98
v 736 67
v 737 59
v 738 44
v 739 22
v 740 23
v 741 77
v 742 116
v 743 4
v 744 78
v 745 37
v 746 85
v 747 22
v 748 89
v 749 80
v 750 30
v 751 125
v 752 22
v 753 64
v 754 64
v 755 91
v 756 26
v 757 31
v 758 78
v 759 128
v 760 84
v 761 47
v 762 79
v 763 24
v 764 84
v 765 5
v 766 119
v 767 63
v 768 89
v 769 134
v 770 74
v 771 53
v 772 80
v 773 49
v 774 0
v 775 135
v 776 29
v 777 22
v 778 129
v 779 14
v 780 2
v 781 121
v 782 76
v 783 85
v 784 46
v 785 105
v 786 24
v 787 16
v 788 6
v 789 59
v 790 61
v 791 70
v 792 34
v 793 93
v 794 103
v 795 74
v 796 58
v 797 90
v 798 5
v 799 55
v 800 69
v 801 49
v 802 84
v 803 96
v 804 86
v 805 81
v 806 21
v 807 21
v 808 37
v 809 0
v 810 29
v 811 9
v 812 106
v 813 56
v 814 1
v 815 13
v 816 23
v 817 97
v 818 40
v 819 138
v 820 87
v 821 15
v 822 114
v 823 108
v 824 107
v 825 55
v 826 45
v 827 115
v 828 85
v 829 3
v 830 78
v 831 39
v 832 113
v 833 81
v 834 39
v 835 35
v 836 93
v 837 24
v 838 143
v 839 97
v 840 48
v 841 24
v 842 60
v 843 10
v 844 45
v 845 12
v 846 93
v 847 41
v 848 93
v 849 106
v 850 127
v 851 114
v 852 32
v 853 71
v 854 45
v 855 82
v 856 20
v 857 86
v 858 93
v 859 57
v 860 19
v 861 39
v 862 63
v 863 16
v 864 67
v 865 47
v 866 88
v 867 14
v 868 34
v 869 1
v 870 29
v 871 57
v 872 24
v 873 142
v 874 39
v 875 72
v 876 35
v 877 21
v 878 18
v 879 36
v 880 83
v 881 105
v 882 12
v 883 124
v 884 5
v 885 40
v 886 22
v 887 68
v 888 49
v 889 8
v 890 66
v 891 0
v 892 138
v 893 52
v 894 56
v 895 113
v 896 106
v 897 78
v 898 75
v 899 104
v 900 68
v 901 13
v 902 17
v 903 16
v 904 106
v 905 26
v 906 30
v 907 36
v 908 65
v 909 22
v 910 18
v 911 19
v 912 64
v 913 21
v 914 8
v 915 128
v 916 32
v 917 43
v 918 74
v 919 112
v 920 70
v 921 136
v 922 1
v 923 40
v 924 104
v 925 81
v 926 59
v 927 109
v 928 38
v 929 96
v 930 25
v 931 64
v 932 2
v 933 38
v 934 97
v 935 109
v 936 102
v 937 94
v 938 113
v 939 29
v 940 6
v 941 43
v 942 79
v 943 56
v 944 61
v 945 39
v 946 55
v 947 96
v 948 63
v 949 3
v 950 25
v 951 82
v 952 128
v 953 98
v 954 42
v 955 59
v 956 62
v 957 94
v 958 72
v 959 82
v 960 17
v 961 34
v 962 31
v 963 4
v 964 105
v 965 22
v 966 7
v 967 34
v 968 92
v 969 136
v 970 42
v 971 76
v 972 51
v 973 48
v 974 53
v 975 123
v 976 68
v 977 38
v 978 11
v 979 23
v 980 60
v 981 70
v 982 95
v 983 58
v 984 1
v 985 114
v 986 58
v 987 7
v 988 51
v 989 141
v 990 47
v 991 54
v 992 75
v 993 141
v 994 54
v 995 96
v 996 135
v 997 21
v 998 66
v 999 138
v 1000 41
